c 
c G(k,n,p) graph
c graph gen seed     : 2691
c number of vertices : 50
c max number of edges: 625
c number of classes  : 2
c edge density       : 0.300000
c edge probability   : 0.600000
c data structure     : dense
c
c           Graph Stats
c number of vertices  : 50
c nonisolated vertices: 50
c number of edges     : 385
c edge density        : 0.314286
c max degree          : 20
c avg degree          : 15.40
c min degree          : 8
p col 50 385
e 1 2
e 1 8
e 1 9
e 1 11
e 1 15
e 1 22
e 1 25
e 1 28
e 1 36
e 1 40
e 1 41
e 1 46
e 1 49
e 2 4
e 2 6
e 2 7
e 2 10
e 2 12
e 2 17
e 2 19
e 2 26
e 2 27
e 2 30
e 2 32
e 2 38
e 2 39
e 2 42
e 2 48
e 2 50
e 3 4
e 3 10
e 3 12
e 3 17
e 3 21
e 3 23
e 3 26
e 3 42
e 3 44
e 3 48
e 3 50
e 4 9
e 4 13
e 4 16
e 4 18
e 4 22
e 4 25
e 4 33
e 4 35
e 4 37
e 4 40
e 4 41
e 4 46
e 5 8
e 5 9
e 5 13
e 5 15
e 5 16
e 5 18
e 5 24
e 5 25
e 5 28
e 5 29
e 5 33
e 5 40
e 5 41
e 6 18
e 6 29
e 6 33
e 6 35
e 6 37
e 6 41
e 6 46
e 6 49
e 7 14
e 7 15
e 7 16
e 7 18
e 7 22
e 7 24
e 7 29
e 7 33
e 7 35
e 7 36
e 7 37
e 7 41
e 7 43
e 7 46
e 8 10
e 8 12
e 8 17
e 8 19
e 8 20
e 8 23
e 8 26
e 8 30
e 8 32
e 8 34
e 8 38
e 8 39
e 8 45
e 8 47
e 8 48
e 8 50
e 9 10
e 9 17
e 9 21
e 9 23
e 9 26
e 9 27
e 9 31
e 9 32
e 9 34
e 9 42
e 9 44
e 9 45
e 9 48
e 9 50
e 10 11
e 10 13
e 10 14
e 10 15
e 10 18
e 10 22
e 10 24
e 10 25
e 10 33
e 10 37
e 10 40
e 10 41
e 10 46
e 10 49
e 11 12
e 11 17
e 11 23
e 11 27
e 11 31
e 11 32
e 11 34
e 11 38
e 11 42
e 11 44
e 11 45
e 11 47
e 11 50
e 12 13
e 12 14
e 12 15
e 12 16
e 12 18
e 12 22
e 12 24
e 12 25
e 12 29
e 12 35
e 12 36
e 12 40
e 12 41
e 12 49
e 13 21
e 13 23
e 13 27
e 13 30
e 13 31
e 13 38
e 13 39
e 13 42
e 13 45
e 13 47
e 13 50
e 14 17
e 14 21
e 14 23
e 14 26
e 14 31
e 14 38
e 14 39
e 14 47
e 14 48
e 15 17
e 15 20
e 15 21
e 15 23
e 15 30
e 15 31
e 15 32
e 15 34
e 15 38
e 15 39
e 15 42
e 15 47
e 15 48
e 15 50
e 16 17
e 16 19
e 16 21
e 16 27
e 16 30
e 16 31
e 16 32
e 16 34
e 16 38
e 16 42
e 16 44
e 16 45
e 16 48
e 16 50
e 17 24
e 17 25
e 17 33
e 17 35
e 17 36
e 17 40
e 17 46
e 18 19
e 18 20
e 18 21
e 18 23
e 18 27
e 18 30
e 18 31
e 18 32
e 18 34
e 18 38
e 18 42
e 18 44
e 18 47
e 18 50
e 19 24
e 19 35
e 19 37
e 19 40
e 20 25
e 20 29
e 20 33
e 20 36
e 20 37
e 20 40
e 20 41
e 20 49
e 21 22
e 21 24
e 21 25
e 21 28
e 21 33
e 21 35
e 21 37
e 22 27
e 22 30
e 22 31
e 22 32
e 22 34
e 22 39
e 22 44
e 22 47
e 22 48
e 22 50
e 23 24
e 23 25
e 23 28
e 23 33
e 23 35
e 23 36
e 23 37
e 23 41
e 23 43
e 23 46
e 23 49
e 24 26
e 24 27
e 24 30
e 24 32
e 24 39
e 24 42
e 24 47
e 24 48
e 25 26
e 25 30
e 25 31
e 25 32
e 25 34
e 25 44
e 25 47
e 25 48
e 26 28
e 26 36
e 26 40
e 26 43
e 26 46
e 26 49
e 27 29
e 27 35
e 27 36
e 27 41
e 27 49
e 28 30
e 28 31
e 28 32
e 28 34
e 28 38
e 28 39
e 28 42
e 28 44
e 28 45
e 28 47
e 28 48
e 28 50
e 29 30
e 29 38
e 29 39
e 29 44
e 29 45
e 29 47
e 29 50
e 30 33
e 30 35
e 30 36
e 30 40
e 30 41
e 30 43
e 30 46
e 31 35
e 31 37
e 31 41
e 31 46
e 32 35
e 32 41
e 32 46
e 32 49
e 33 34
e 33 38
e 33 42
e 33 45
e 33 48
e 33 50
e 34 35
e 34 36
e 34 37
e 34 40
e 34 41
e 34 43
e 34 46
e 34 49
e 35 38
e 35 39
e 35 42
e 35 44
e 35 45
e 35 48
e 35 50
e 36 39
e 36 42
e 36 45
e 36 47
e 36 48
e 37 39
e 37 42
e 37 44
e 37 45
e 37 47
e 37 50
e 38 41
e 38 43
e 38 49
e 39 40
e 39 43
e 39 49
e 40 42
e 40 44
e 40 45
e 40 50
e 41 44
e 41 50
e 42 43
e 42 46
e 42 49
e 43 44
e 43 45
e 43 50
e 44 46
e 44 49
e 45 49
e 46 47
e 46 48
e 48 49
e 49 50
